&control
 calculation='vc-relax'
 outdir='./out/'
 restart_mode='from_scratch'
 prefix=armchair
 pseudo_dir='./'
 wf_collect=.true.
 etot_conv_thr=1.0D-10
 forc_conv_thr=1.0D-4
/
&system
 input_dft='vdw-df'
 ecutwfc=300
 ibrav=0
 celldm(1)=42.77962
 nat=22
 ntyp=3
/
&electrons
 conv_thr=1.0D-10
/
&ions
 ion_dynamics='bfgs'
/
&cell
 cell_dynamics='bfgs'
 cell_dofree='z'
/
ATOMIC_SPECIES 
H 1.00750 H.BFD.upf
Si 28.08500 Si.bfd.upf
C 12.01060 C.BFD.upf
ATOMIC_POSITIONS crystal
Si  0.687256301000000 0.500016543000000 0.000000000000000
Si  0.651455100000000 0.610051281000000 0.500000000000000
Si  0.557823932000000 0.678040630000000 0.000000000000000
Si  0.442117267000000 0.678024926000000 0.500000000000000
Si  0.348498795000000 0.610020834000000 0.000000000000000
Si  0.312743699000000 0.499983457000000 0.500000000000000
Si  0.348544900000000 0.389948719000000 0.000000000000000
Si  0.442176068000000 0.321959370000000 0.500000000000000
Si  0.557882733000000 0.321975074000000 0.000000000000000
Si  0.651501205000000 0.389979166000000 0.500000000000000
C   0.675083116000000 0.578074061000000 0.000000000000000
C   0.595728321000000 0.666044564000000 0.500000000000000
C   0.479831998000000 0.690606668000000 0.000000000000000
C   0.371627562000000 0.642360820000000 0.500000000000000
C   0.312412175000000 0.539745534000000 0.000000000000000
C   0.324916884000000 0.421925939000000 0.500000000000000
C   0.404271679000000 0.333955436000000 0.000000000000000
C   0.520168002000000 0.309393332000000 0.500000000000000
C   0.628372438000000 0.357639180000000 0.000000000000000
C   0.687587825000000 0.460254466000000 0.500000000000000
H   0.203748039434645 0.631722448640291 0.499999999966370
H   0.173793757784769 0.645040980398916 0.499999999966370
K_POINTS automatic
1 1 6 0 0 0
CELL_PARAMETERS alat
1.000000000000000 0.000000000000000 0.000000000000000
0.000000000000000 1.000000000000000 0.000000000000000
0.000000000000000 0.000000000000000 0.136882167000000

